row=6;
Board=[|0,0,7,4,0,0,8,6,0,0|0,0,0,0,7,0,5,0,0,2|0,8,5,0,1,0,7,0,9,10|5,1,0,4,10,6,0,8,0,3|0,3,0,8,0,0,2,0,7,0|10,0,7,3,2,5,0,0,0,9|];
bottom=[21600,1920,8575,2304,6300,3240,5040,92160,54432,5400]